20
587 233 220
113 80 29
98 65 62
60 59 46
100 97 64
99 88 23
106 49 33
78 54 30
71 68 41
83 80 35
99 55 27
91 51 43
99 78 72
102 88 37
97 75 72
83 63 27
78 38 36
120 88 55
77 72 38
45 38 25
73 48 23
thpack7_24